
n_res = 6;
rcap = [59, 49, 55, 52, 812, 884];
rtype = [1, 1, 1, 1, 2, 2];
n_tasks = 50;
modes =  [{1, 2, 3}, {4, 5, 6}, {7, 8, 9}, {10, 11, 12}, {13, 14, 15}, {16, 17, 18}, {19, 20, 21}, {22, 23, 24}, {25, 26, 27}, {28, 29, 30}, {31, 32, 33}, {34, 35, 36}, {37, 38, 39}, {40, 41, 42}, {43, 44, 45}, {46, 47, 48}, {49, 50, 51}, {52, 53, 54}, {55, 56, 57}, {58, 59, 60}, {61, 62, 63}, {64, 65, 66}, {67, 68, 69}, {70, 71, 72}, {73, 74, 75}, {76, 77, 78}, {79, 80, 81}, {82, 83, 84}, {85, 86, 87}, {88, 89, 90}, {91, 92, 93}, {94, 95, 96}, {97, 98, 99}, {100, 101, 102}, {103, 104, 105}, {106, 107, 108}, {109, 110, 111}, {112, 113, 114}, {115, 116, 117}, {118, 119, 120}, {121, 122, 123}, {124, 125, 126}, {127, 128, 129}, {130, 131, 132}, {133, 134, 135}, {136, 137, 138}, {139, 140, 141}, {142, 143, 144}, {145, 146, 147}, {148, 149, 150}];
succ =  [{16, 13, 11, 8, 7}, {16, 14, 13, 12, 10}, {16, 10, 7}, {17, 14, 13, 10}, {17, 11, 7}, {17, 14, 10}, {20, 14, 12}, {18, 17, 15}, {16, 15, 14}, {18, 15}, {20, 19, 18}, {24, 19, 18}, {21, 20, 19}, {24, 21, 19}, {22, 20, 19}, {25, 24, 23, 22}, {25, 24, 21}, {23, 22}, {39, 27, 26, 25}, {28, 27, 24}, {39, 22}, {28, 27, 26}, {39, 27, 26}, {39, 26}, {33, 30, 29, 28}, {37, 35, 32, 31, 30}, {36, 35, 33, 29}, {38, 34, 32}, {42, 41, 40, 38, 37}, {46, 40, 36, 34}, {50, 48, 47, 46, 42, 41}, {49, 46, 36}, {48, 47, 46, 45, 40}, {50, 48, 47, 44, 41}, {49, 45, 38}, {48, 42, 41}, {49, 48, 46, 44, 43}, {50, 47, 46, 43}, {47, 41}, {49, 44, 43}, {45, 43}, {44}, {}, {}, {}, {}, {}, {}, {}, {}];
n_opt = 150;
dur = [3, 24, 27, 1, 8, 28, 14, 15, 30, 1, 8, 23, 1, 2, 19, 12, 19, 24, 1, 7, 28, 9, 14, 19, 13, 20, 23, 4, 10, 18, 12, 22, 25, 6, 14, 30, 4, 12, 13, 6, 10, 17, 7, 8, 20, 12, 13, 19, 9, 18, 27, 6, 15, 26, 7, 15, 18, 6, 9, 27, 6, 10, 29, 7, 8, 19, 8, 11, 17, 4, 16, 26, 3, 15, 18, 4, 12, 24, 12, 15, 27, 16, 19, 21, 8, 23, 28, 13, 20, 29, 1, 6, 30, 1, 13, 19, 8, 27, 30, 1, 14, 15, 7, 10, 18, 1, 11, 27, 4, 5, 14, 24, 25, 30, 5, 23, 24, 17, 25, 28, 6, 10, 22, 5, 28, 29, 3, 14, 30, 3, 27, 29, 14, 17, 26, 4, 13, 27, 7, 25, 29, 3, 12, 13, 4, 5, 8, 17, 20, 25];
rreq = [|30, 29, 29, 19, 17, 8, 12, 11, 10, 14, 12, 6, 30, 28, 26, 20, 20, 20, 12, 12, 12, 15, 15, 12, 21, 19, 17, 24, 17, 16, 17, 13, 12, 24, 23, 20, 17, 14, 12, 19, 16, 13, 20, 19, 13, 26, 18, 16, 15, 12, 10, 23, 22, 18, 20, 20, 19, 15, 14, 3, 13, 13, 11, 23, 12, 11, 11, 7, 3, 28, 24, 21, 17, 17, 17, 4, 4, 3, 24, 17, 3, 28, 24, 23, 14, 13, 9, 22, 18, 15, 23, 18, 10, 11, 4, 2, 24, 22, 22, 19, 14, 13, 24, 10, 7, 17, 10, 9, 20, 19, 17, 18, 17, 14, 26, 13, 7, 24, 24, 24, 7, 7, 7, 20, 14, 13, 9, 8, 6, 20, 17, 13, 15, 12, 10, 19, 18, 18, 24, 12, 11, 19, 17, 17, 18, 11, 4, 20, 19, 17
 |6, 6, 6, 22, 22, 22, 17, 9, 8, 27, 18, 7, 22, 20, 20, 13, 13, 11, 29, 27, 27, 13, 12, 9, 3, 3, 3, 27, 26, 25, 23, 15, 13, 28, 24, 21, 9, 8, 7, 8, 8, 8, 17, 14, 12, 18, 8, 3, 18, 11, 10, 19, 14, 10, 12, 11, 8, 16, 15, 14, 24, 20, 15, 29, 20, 9, 13, 9, 6, 2, 1, 1, 17, 7, 2, 27, 26, 26, 21, 10, 10, 21, 21, 21, 26, 20, 15, 18, 15, 12, 24, 20, 16, 22, 16, 14, 18, 17, 17, 24, 23, 15, 27, 21, 16, 13, 10, 8, 1, 1, 1, 20, 19, 19, 27, 20, 10, 29, 28, 26, 25, 25, 25, 27, 21, 18, 25, 24, 15, 27, 27, 26, 22, 19, 16, 25, 25, 22, 4, 3, 1, 21, 19, 15, 16, 16, 15, 26, 13, 7
 |14, 14, 13, 26, 25, 25, 23, 22, 17, 18, 17, 16, 19, 18, 17, 24, 23, 15, 18, 16, 16, 21, 16, 12, 11, 11, 10, 19, 13, 10, 22, 19, 16, 20, 19, 17, 23, 17, 16, 26, 20, 17, 24, 19, 16, 22, 17, 12, 13, 10, 4, 14, 12, 11, 24, 24, 23, 24, 24, 22, 5, 4, 1, 15, 14, 14, 17, 15, 12, 11, 8, 8, 24, 17, 16, 20, 17, 6, 2, 1, 1, 11, 8, 4, 15, 14, 12, 29, 27, 26, 14, 12, 11, 10, 6, 2, 22, 12, 3, 14, 9, 3, 26, 23, 21, 8, 8, 8, 20, 17, 12, 4, 3, 3, 27, 27, 26, 14, 7, 4, 14, 11, 9, 6, 5, 4, 27, 27, 23, 19, 19, 8, 10, 8, 4, 27, 22, 18, 27, 25, 23, 29, 18, 6, 3, 2, 1, 7, 7, 5
 |2, 2, 2, 29, 24, 23, 11, 8, 5, 12, 8, 5, 26, 16, 7, 13, 11, 7, 15, 14, 13, 13, 12, 9, 27, 24, 18, 21, 11, 6, 25, 22, 14, 30, 28, 28, 21, 16, 6, 18, 14, 12, 17, 16, 12, 30, 20, 14, 18, 10, 8, 16, 14, 13, 7, 6, 3, 14, 9, 8, 25, 20, 20, 27, 20, 11, 17, 16, 7, 25, 10, 5, 29, 29, 29, 13, 13, 13, 28, 20, 11, 12, 9, 9, 27, 24, 22, 19, 16, 8, 5, 5, 3, 14, 14, 11, 24, 17, 12, 21, 15, 6, 16, 13, 13, 19, 15, 8, 19, 13, 5, 23, 13, 7, 24, 12, 1, 24, 22, 19, 12, 11, 7, 14, 10, 9, 21, 11, 7, 22, 21, 19, 10, 7, 6, 12, 12, 12, 11, 8, 6, 20, 16, 15, 18, 13, 12, 24, 21, 18
 |25, 18, 16, 20, 20, 20, 21, 14, 11, 17, 7, 4, 16, 14, 9, 20, 13, 7, 6, 6, 6, 21, 18, 13, 7, 7, 6, 24, 23, 23, 21, 16, 12, 10, 8, 4, 23, 12, 9, 11, 11, 8, 8, 8, 8, 10, 5, 3, 25, 19, 16, 25, 23, 21, 18, 18, 18, 24, 15, 13, 20, 15, 13, 25, 14, 9, 18, 12, 7, 18, 9, 8, 26, 25, 25, 19, 19, 17, 14, 14, 14, 24, 19, 3, 12, 10, 8, 10, 9, 7, 28, 27, 26, 21, 19, 18, 26, 18, 6, 15, 13, 13, 25, 15, 6, 15, 12, 9, 20, 19, 19, 21, 21, 19, 13, 9, 8, 22, 19, 13, 17, 12, 8, 5, 5, 5, 6, 4, 3, 24, 18, 6, 19, 14, 7, 22, 12, 5, 17, 14, 10, 12, 10, 10, 11, 8, 4, 24, 20, 15
 |21, 18, 17, 13, 13, 13, 13, 11, 11, 26, 13, 5, 21, 14, 8, 22, 20, 20, 20, 13, 8, 13, 10, 7, 20, 14, 7, 22, 18, 14, 21, 21, 18, 27, 21, 18, 19, 15, 12, 16, 16, 15, 20, 10, 4, 25, 22, 7, 25, 14, 12, 14, 7, 2, 8, 4, 4, 25, 23, 20, 17, 16, 16, 19, 17, 17, 19, 13, 7, 17, 12, 6, 28, 14, 10, 21, 17, 11, 17, 15, 15, 24, 17, 8, 14, 9, 8, 17, 14, 3, 25, 20, 5, 19, 18, 17, 27, 19, 12, 28, 26, 22, 23, 21, 21, 21, 19, 8, 26, 20, 20, 22, 21, 21, 6, 4, 4, 15, 12, 9, 26, 24, 23, 13, 11, 11, 29, 28, 27, 3, 2, 2, 18, 17, 17, 20, 13, 9, 13, 11, 11, 24, 14, 11, 21, 20, 18, 16, 8, 8|];